NAME : prob20c
TYPE : PDTSP
DIMENSION : 41
EDGE_WEIGHT_TYPE : EUC_2D
NODE_COORD_SECTION
1 433 845
2 250 388
3 673 365
4 559 609
5 926 653
6 307 739
7 731 933
8 559 412
9 110 158
10 117 353
11 927 448
12 678 850
13 822 122
14 915 288
15 762 388
16 704 800
17 47 903
18 923 600
19 895 667
20 10 848
21 111 680
22 376 342
23 554 550
24 531 121
25 965 768
26 718 283
27 732 738
28 481 251
29 564 136
30 909 106
31 912 845
32 839 905
33 1 205
34 490 538
35 302 590
36 525 206
37 148 482
38 334 133
39 607 60
40 20 388
41 802 387
PICKUP_AND_DELIVERY_SECTION
1 0 0 0 0 0 0
2 0 0 0 0 22 0
3 0 0 0 0 23 0
4 0 0 0 0 24 0
5 0 0 0 0 25 0
6 0 0 0 0 26 0
7 0 0 0 0 27 0
8 0 0 0 0 28 0
9 0 0 0 0 29 0
10 0 0 0 0 30 0
11 0 0 0 0 31 0
12 0 0 0 0 32 0
13 0 0 0 0 33 0
14 0 0 0 0 34 0
15 0 0 0 0 35 0
16 0 0 0 0 36 0
17 0 0 0 0 37 0
18 0 0 0 0 38 0
19 0 0 0 0 39 0
20 0 0 0 0 40 0
21 0 0 0 0 41 0
22 0 0 0 0 0 2
23 0 0 0 0 0 3
24 0 0 0 0 0 4
25 0 0 0 0 0 5
26 0 0 0 0 0 6
27 0 0 0 0 0 7
28 0 0 0 0 0 8
29 0 0 0 0 0 9
30 0 0 0 0 0 10
31 0 0 0 0 0 11
32 0 0 0 0 0 12
33 0 0 0 0 0 13
34 0 0 0 0 0 14
35 0 0 0 0 0 15
36 0 0 0 0 0 16
37 0 0 0 0 0 17
38 0 0 0 0 0 18
39 0 0 0 0 0 19
40 0 0 0 0 0 20
41 0 0 0 0 0 21
DEPOT_SECTION
1 
-1
EOF
